RT is False
Default write of storage_offers_DA.csv just to have a file (but constraint should be inactive)
Reading model...
...model read.
creating competitive generators file...
...competitive generators recorded.
Loading data...
.. day-ahead data read.
Compiling instance...
...instance created.
Creating Offer Mitigation (model will solve as dispatch if TRUE)...
NOTE: storage offers will not be mitigated
...storage offer mitigation file created
Converting model to MPEC...
...converted
NOTE: initial MIP solve with only storage competitive to get feasible solution
Solving...

Welcome to IBM(R) ILOG(R) CPLEX(R) Interactive Optimizer 12.9.0.0
  with Simplex, Mixed Integer & Barrier Optimizers
5725-A06 5725-A29 5724-Y48 5724-Y49 5724-Y54 5724-Y55 5655-Y21
Copyright IBM Corp. 1988, 2019.  All Rights Reserved.

Type 'help' for a list of available commands.
Type 'help' followed by a command name for more
information on commands.

CPLEX> Logfile 'cplex.log' closed.
Logfile 'C:\Users\llavin\Desktop\test919\logs\tmplo_vic9m.cplex.log' open.
CPLEX> New value for parallel optimization mode: -1
CPLEX> New value for mixed integer optimality gap tolerance: 0.01
CPLEX> New value for integrality tolerance: 1e-09
CPLEX> New value for feasibility tolerance: 0.01
CPLEX> New value for deterministic time limit in ticks: 75000
CPLEX> Problem 'C:\Users\llavin\Desktop\test919\logs\tmplf83ypkq.pyomo.lp' read.
Read time = 0.27 sec. (14.73 ticks)
CPLEX> Problem name         : C:\Users\llavin\Desktop\test919\logs\tmplf83ypkq.pyomo.lp
Objective sense      : Maximize
Variables            :   53805  [Nneg: 1,  Box: 22000,  Free: 4464,
                                 Binary: 27340]
Objective nonzeros   :    9106
Linear constraints   :  123205  [Less: 41346,  Greater: 59096,  Equal: 22763]
  Nonzeros           :  291830
  RHS nonzeros       :   67568

Variables            : Min LB: -5000.000        Max UB: 1000000.       
Objective nonzeros   : Min   : 0.1000000        Max   : 2500.000       
Linear constraints   :
  Nonzeros           : Min   : 0.1000000        Max   : 1000000.       
  RHS nonzeros       : Min   : 0.1000000        Max   : 1000000.       
CPLEX> CPXPARAM_Parallel                                -1
CPXPARAM_Simplex_Tolerances_Feasibility          0.01
CPXPARAM_DetTimeLimit                            75000
CPXPARAM_MIP_Tolerances_MIPGap                   0.01
CPXPARAM_MIP_Tolerances_Integrality              1.0000000000000001e-09
Tried aggregator 3 times.
MIP Presolve eliminated 88238 rows and 18631 columns.
MIP Presolve added 3458 rows and 0 columns.
MIP Presolve modified 24988 coefficients.
Aggregator did 12996 substitutions.
Reduced MIP has 25429 rows, 21691 columns, and 72354 nonzeros.
Reduced MIP has 8580 binaries, 0 generals, 0 SOSs, and 0 indicators.
Presolve time = 0.28 sec. (176.66 ticks)
Probing fixed 388 vars, tightened 2893 bounds.
Probing time = 1.25 sec. (896.91 ticks)
Tried aggregator 2 times.
MIP Presolve eliminated 882 rows and 778 columns.
MIP Presolve modified 2290 coefficients.
Aggregator did 38 substitutions.
Reduced MIP has 24509 rows, 20875 columns, and 69698 nonzeros.
Reduced MIP has 8191 binaries, 0 generals, 0 SOSs, and 0 indicators.
Presolve time = 0.11 sec. (72.82 ticks)
Probing time = 0.05 sec. (15.97 ticks)
Clique table members: 6422.
MIP emphasis: balance optimality and feasibility.
MIP search method: dynamic search.
Parallel mode: opportunistic, using up to 32 threads.
Root relaxation solution time = 0.36 sec. (275.75 ticks)

        Nodes                                         Cuts/
   Node  Left     Objective  IInf  Best Integer    Best Bound    ItCnt     Gap

      0     0     3963.0208  1824                   3963.0208     6791         
*     0+    0                         3963.0208     3963.0208             0.00%
      0     0        cutoff           3963.0208     3963.0208     6791    0.00%
Elapsed time = 4.25 sec. (3294.81 ticks, tree = 0.01 MB, solutions = 1)

Root node processing (before b&c):
  Real time             =    4.27 sec. (3296.65 ticks)
Parallel b&c, 32 threads:
  Real time             =    0.00 sec. (0.00 ticks)
  Sync time (average)   =    0.00 sec.
  Wait time (average)   =    0.00 sec.
                          ------------
Total (root+branch&cut) =    4.27 sec. (3296.65 ticks)

Solution pool: 1 solution saved.

MIP - Integer optimal solution:  Objective =  3.9630207900e+03
Solution time =    4.28 sec.  Iterations = 6791  Nodes = 0
Deterministic time = 3296.80 ticks  (770.10 ticks/sec)

CPLEX> Incumbent solution written to file 'C:\Users\llavin\Desktop\test919\logs\tmp_0pkx8fz.cplex.sol'.
CPLEX> NOTE: no warmstart specified for MIP iteration, default behavior is true
NOTE: resolving with all competitive generators using storage-only solution to warmstart
Solving...

Welcome to IBM(R) ILOG(R) CPLEX(R) Interactive Optimizer 12.9.0.0
  with Simplex, Mixed Integer & Barrier Optimizers
5725-A06 5725-A29 5724-Y48 5724-Y49 5724-Y54 5724-Y55 5655-Y21
Copyright IBM Corp. 1988, 2019.  All Rights Reserved.

Type 'help' for a list of available commands.
Type 'help' followed by a command name for more
information on commands.

CPLEX> Logfile 'cplex.log' closed.
Logfile 'C:\Users\llavin\Desktop\test919\logs\tmpvb5jvgp9.cplex.log' open.
CPLEX> New value for parallel optimization mode: -1
CPLEX> New value for mixed integer optimality gap tolerance: 0.01
CPLEX> New value for integrality tolerance: 1e-09
CPLEX> New value for feasibility tolerance: 0.01
CPLEX> New value for deterministic time limit in ticks: 75000
CPLEX> Problem 'C:\Users\llavin\Desktop\test919\logs\tmpbg9oz4o2.pyomo.lp' read.
Read time = 0.23 sec. (14.75 ticks)
CPLEX> MIP start file 'C:\Users\llavin\Desktop\test919\logs\tmpkvjyocfo.cplex.mst' read.
CPLEX> Problem name         : C:\Users\llavin\Desktop\test919\logs\tmpbg9oz4o2.pyomo.lp
Objective sense      : Maximize
Variables            :   54525  [Nneg: 1,  Box: 22720,  Free: 4464,
                                 Binary: 27340]
Objective nonzeros   :    9802
Linear constraints   :  123205  [Less: 41346,  Greater: 59096,  Equal: 22763]
  Nonzeros           :  291830
  RHS nonzeros       :   67568

Variables            : Min LB: -5000.000        Max UB: 1000000.       
Objective nonzeros   : Min   : 0.1000000        Max   : 2500.000       
Linear constraints   :
  Nonzeros           : Min   : 0.1000000        Max   : 1000000.       
  RHS nonzeros       : Min   : 0.1000000        Max   : 1000000.       
CPLEX> CPXPARAM_Parallel                                -1
CPXPARAM_Simplex_Tolerances_Feasibility          0.01
CPXPARAM_DetTimeLimit                            75000
CPXPARAM_MIP_Tolerances_MIPGap                   0.01
CPXPARAM_MIP_Tolerances_Integrality              1.0000000000000001e-09
Warning:  No solution found from 1 MIP starts.
Retaining values of one MIP start for possible repair.
Tried aggregator 3 times.
MIP Presolve eliminated 88238 rows and 19351 columns.
MIP Presolve added 3458 rows and 0 columns.
MIP Presolve modified 24988 coefficients.
Aggregator did 12996 substitutions.
Reduced MIP has 25429 rows, 21691 columns, and 72354 nonzeros.
Reduced MIP has 8580 binaries, 0 generals, 0 SOSs, and 0 indicators.
Presolve time = 0.28 sec. (177.03 ticks)
Probing fixed 388 vars, tightened 2893 bounds.
Probing time = 1.22 sec. (896.91 ticks)
Tried aggregator 2 times.
MIP Presolve eliminated 882 rows and 778 columns.
MIP Presolve modified 2290 coefficients.
Aggregator did 38 substitutions.
Reduced MIP has 24509 rows, 20875 columns, and 69698 nonzeros.
Reduced MIP has 8191 binaries, 0 generals, 0 SOSs, and 0 indicators.
Presolve time = 0.09 sec. (72.82 ticks)
Probing time = 0.05 sec. (15.97 ticks)
Clique table members: 6422.
MIP emphasis: balance optimality and feasibility.
MIP search method: dynamic search.
Parallel mode: opportunistic, using up to 32 threads.
Root relaxation solution time = 0.34 sec. (275.33 ticks)

        Nodes                                         Cuts/
   Node  Left     Objective  IInf  Best Integer    Best Bound    ItCnt     Gap

      0     0   131732.6664  2010                 131732.6664     5745         
      0     0   130388.6922   724                   Cuts: 676     6085         
      0     0   130155.1327   616                   Cuts: 412     6252         
      0     0   130140.6303   550                   Cuts: 257     6358         
      0     0   130130.7157   512                   Cuts: 135     6422         
      0     0   130130.7157   480                   Cuts: 112     6459         
      0     0   130124.8506   473                    Cuts: 39     6470         
      0     0   130124.8506   470                    Cuts: 30     6475         
      0     0   130124.8506   468                    Cuts: 22     6477         
Repair heuristic found nothing.
      0    10    infeasible                          Cuts: 17     6607         
Elapsed time = 11.11 sec. (6644.10 ticks, tree = 0.02 MB, solutions = 0)
    402   176    infeasible                       124063.9413     9621         
    657   357   105045.0574   415                 124063.9413    15282         
   1229   576   104640.5521   403                 124063.9413    17495         
   1843  1128    infeasible                       124063.9413    26100         
   2463  1528    91262.7180   355                 124063.9413    31345         
   3406  2130    97241.5783   354                 124063.9413    38438         
   4250  2592   103615.0024   417                 124063.9413    40747         
   4878  3711    92212.6154   308                 124063.9413    43781         
   5599  4195    98850.1108   314                 124063.9413    45274         
  10010  8999    68295.9937   250                 124063.9413    56201         
Elapsed time = 28.84 sec. (9747.17 ticks, tree = 77.93 MB, solutions = 0)
* 11249+10870                        52839.0356   124063.9413           134.80%
* 12430 10083      integral     0    68090.3636   124063.9413    57173   82.20%
  13879  4442        cutoff          96398.0112   109095.3689    73283   13.17%
  15387   512   105796.9845   115    96398.0112   107160.3077    78657   11.16%
  16242  1865   105110.8110   165    96773.7505   107131.1572    90610   10.70%
  18891  3033   101486.6944    57    98961.8007   107131.1572   102251    8.26%
  21663  3800    99590.6035    39    98961.8007   107131.1572   115873    8.26%
* 21742  3559      integral     0   102650.7432   107069.2955   106819    4.30%
  24380  2679   104518.4934   131   102650.7432   107048.3679   137613    4.28%
  27072  2861   105687.3945    88   102650.7432   105969.3899   140029    3.23%
  29884  5367        cutoff         102650.7432   105967.9966   166869    3.23%
Elapsed time = 80.69 sec. (23080.03 ticks, tree = 52.93 MB, solutions = 12)
  32977  8750   105790.7956    68   102650.7432   105967.9966   189432    3.23%
  35137  7684        cutoff         102650.7432   105912.9910   182096    3.18%
  35538 10881   105803.7708    98   102650.7432   105902.4484   203394    3.17%
  36023 12051   103780.0863    46   102650.7432   105856.1492   210627    3.12%
  37933 12004   104922.7533    53   102650.7432   105856.1492   210341    3.12%
  40820 12506   105395.3434    74   102650.7432   105853.1040   213075    3.12%
  43871 13424   105146.2664    49   102650.7432   105819.9973   217971    3.09%
  46829 14366        cutoff         102650.7432   105819.9973   223093    3.09%
  49680 17577   103725.9359    61   102650.7432   105811.7288   242051    3.08%
  52420 17319   105299.7141    61   102650.7432   105808.5543   240263    3.08%
Elapsed time = 129.55 sec. (32626.29 ticks, tree = 177.92 MB, solutions = 12)
  55244 19821   103021.8318    33   102650.7432   105804.6740   254513    3.07%
  58049 25816   105778.7895    61   102650.7432   105804.6740   285905    3.07%
  60962 25906   103756.9865    56   102650.7432   105803.1237   286351    3.07%
  63591 26758   102770.3474    56   102650.7432   105801.4994   292534    3.07%
  65948 33116   104017.1966    48   102650.7432   105801.4994   334361    3.07%
  67942 34288   102902.9153    50   102650.7432   105801.4994   343073    3.07%
  69094 30955        cutoff         102650.7432   105801.4994   316223    3.07%
  69748 33474   105485.8988    51   102650.7432   105801.4994   337447    3.07%
  70365 33805   105739.0242    64   102650.7432   105801.4994   340134    3.07%
  70921 36246   104280.0243    58   102650.7432   105801.4994   359834    3.07%
Elapsed time = 177.02 sec. (42170.82 ticks, tree = 380.80 MB, solutions = 12)
  71437 36316   102844.2527    33   102650.7432   105801.4994   360258    3.07%
  72063 36490        cutoff         102650.7432   105801.4994   361666    3.07%
  72477 34847   105490.9413    48   102650.7432   105801.4994   345909    3.07%
  72914 35898   103483.3112    29   102650.7432   105801.4994   355417    3.07%
  73629 37281   105315.9347    49   102650.7432   105801.4994   367928    3.07%
  74409 40103   105067.1811    46   102650.7432   105801.4994   396298    3.07%
  75129 40126   104866.2925    44   102650.7432   105801.4994   397257    3.07%
  75727 38576   103750.7994    46   102650.7432   105801.4994   382591    3.07%
  76224 39031   102652.9189    33   102650.7432   105801.4994   389932    3.07%
  76715 39992   102674.3994    65   102650.7432   105801.4994   395525    3.07%
Elapsed time = 192.84 sec. (51724.37 ticks, tree = 420.81 MB, solutions = 13)
  77238 40687    infeasible         102650.7432   105801.4994   402558    3.07%
  77662 39468   104294.2526    26   102650.7432   105801.4994   393068    3.07%
  78015 38982    infeasible         102650.7432   105801.4994   389475    3.07%
  78340 40624   103324.2083    31   102650.7432   105801.4994   399887    3.07%
* 78807 39345      integral     0   102679.4700   105801.4994   394028    3.04%
  78973 42648   104333.2026    50   102679.4700   105801.4994   417132    3.04%
  79487 39615   104294.2526    43   102679.4700   105801.4994   394256    3.04%
  80020 39185   105485.6994    47   102679.4700   105801.4994   391079    3.04%
  80618 40092        cutoff         102679.4700   105801.4994   397775    3.04%
  80961 41183        cutoff         102679.4700   105801.4994   405298    3.04%
  81289 40733   103304.5946    47   102679.4700   105801.4994   400763    3.04%
Elapsed time = 193.23 sec. (61279.74 ticks, tree = 428.97 MB, solutions = 13)
  81687 40223   104704.2135    49   102679.4700   105801.4994   399023    3.04%
  82023 43164   103994.2564    56   102679.4700   105801.4994   420498    3.04%
  82365 43220   103994.2564    53   102679.4700   105801.4994   421513    3.04%
  82686 41615        cutoff         102679.4700   105801.4994   409386    3.04%
  82884 43368        cutoff         102679.4700   105801.4994   422352    3.04%
  83070 43434   105324.1623    53   102679.4700   105801.4994   422758    3.04%
  83238 43514   103994.2564    53   102679.4700   105801.4994   423134    3.04%
  83437 43580   104088.0558    47   102679.4700   105801.4994   423500    3.04%
  83543 43658        cutoff         102679.4700   105801.4994   423898    3.04%
  83645 43736   103994.2564    54   102679.4700   105801.4994   424306    3.04%
Elapsed time = 201.45 sec. (70850.67 ticks, tree = 460.57 MB, solutions = 13)
  83735 43798   105324.1623    55   102679.4700   105801.4994   424756    3.04%
  83824 42141        cutoff         102679.4700   105801.4994   414233    3.04%
  83916 42131    infeasible         102679.4700   105801.4994   414214    3.04%
  83918 42448    infeasible         102679.4700   105801.4994   415920    3.04%

Clique cuts applied:  12
Cover cuts applied:  12
Implied bound cuts applied:  8
Flow cuts applied:  316
Mixed integer rounding cuts applied:  41
Gomory fractional cuts applied:  82

Root node processing (before b&c):
  Real time             =    9.75 sec. (6629.13 ticks)
Parallel b&c, 32 threads:
  Real time             =  195.17 sec. (68391.13 ticks)
  Sync time (average)   =    2.05 sec.
  Wait time (average)   =    0.25 sec.
                          ------------
Total (root+branch&cut) =  204.92 sec. (75020.26 ticks)

Solution pool: 13 solutions saved.

MIP - Deterministic time limit exceeded, integer feasible:  Objective =  1.0267946996e+05
Current MIP best bound =  1.0579769369e+05 (gap = 3118.22, 3.04%)
Solution time =  204.94 sec.  Iterations = 468917  Nodes = 83920 (48042)
Deterministic time = 75020.42 ticks  (366.07 ticks/sec)

CPLEX> Incumbent solution written to file 'C:\Users\llavin\Desktop\test919\logs\tmpwkmwe1la.cplex.sol'.
CPLEX> Exporting results... 
